15
0 79 29 50 45 63 47 67 27 64 27 55 19 70 29
79 0 58 31 43 59 73 40 38 69 58 73 78 68 54
29 58 0 95 78 40 45 56 20 21 22 48 71 19 31
50 31 95 0 53 22 61 77 81 50 65 73 83 40 75
45 43 78 53 0 53 91 41 58 46 64 33 55 70 29
63 59 40 22 53 0 28 54 39 29 44 44 81 50 61
47 73 45 61 91 28 0 48 76 44 9 75 67 38 18
67 40 56 77 41 54 48 0 66 25 22 35 38 31 46
27 38 20 81 58 39 76 66 0 38 56 91 65 29 19
64 69 21 50 46 29 44 25 38 0 84 37 40 69 83
27 58 22 65 64 44 9 22 56 84 0 45 56 13 81
55 73 48 73 33 44 75 35 91 37 45 0 75 33 55
19 78 71 83 55 81 67 38 65 40 56 75 0 49 62
70 68 19 40 70 50 38 31 29 69 13 33 49 0 18
29 54 31 75 29 61 18 46 19 83 81 55 62 18 0
